22
3 56 25 49 
2 44 11 
3 6 55 52 
3 58 23 20 
2 51 17 
3 53 10 38 
3 18 14 31 
3 29 12 3 
3 22 4 34 
3 1 46 13 
3 33 48 21 
3 40 26 45 
2 28 7 
3 19 27 36 
3 35 54 30 
3 2 39 32 
3 57 24 5 
3 9 16 8 
2 47 41 
3 43 50 59 
3 15 60 42 
1 37 
